p cnf 21 11
a 1 0
e 2 3 0
a 4 5 6 0
e 7 8 0
a 9 0
e 10 11 12 0
a 13 14 15 0
e 16 17 0
a 18 19 0
e 20 0
a 21 0
14 18 6 -3 11 0
-1 -2 -12 13 -3 0
19 16 -11 -4 -6 0
-6 11 -10 0
-12 21 2 -20 -14 0
14 -15 13 -6 0
-2 -12 -14 16 20 0
20 -1 -12 0
2 -13 5 -17 0
-10 17 0
-3 -15 0
